c at-most-one of 7 pidgeon in 6 holes
c p1@1 1
c p2@1 2
c p3@1 3
c p4@1 4
c p5@1 5
c p6@1 6
c p7@1 7
c p1@2 8
c p2@2 9
c p3@2 10
c p4@2 11
c p5@2 12
c p6@2 13
c p7@2 14
c p1@3 15
c p2@3 16
c p3@3 17
c p4@3 18
c p5@3 19
c p6@3 20
c p7@3 21
c p1@4 22
c p2@4 23
c p3@4 24
c p4@4 25
c p5@4 26
c p6@4 27
c p7@4 28
c p1@5 29
c p2@5 30
c p3@5 31
c p4@5 32
c p5@5 33
c p6@5 34
c p7@5 35
c p1@6 36
c p2@6 37
c p3@6 38
c p4@6 39
c p5@6 40
c p6@6 41
c p7@6 42
p cnf 42 133
-1 -2 0
-1 -3 0
-1 -4 0
-1 -5 0
-1 -6 0
-1 -7 0
-2 -3 0
-2 -4 0
-2 -5 0
-2 -6 0
-2 -7 0
-3 -4 0
-3 -5 0
-3 -6 0
-3 -7 0
-4 -5 0
-4 -6 0
-4 -7 0
-5 -6 0
-5 -7 0
-6 -7 0
-8 -9 0
-8 -10 0
-8 -11 0
-8 -12 0
-8 -13 0
-8 -14 0
-9 -10 0
-9 -11 0
-9 -12 0
-9 -13 0
-9 -14 0
-10 -11 0
-10 -12 0
-10 -13 0
-10 -14 0
-11 -12 0
-11 -13 0
-11 -14 0
-12 -13 0
-12 -14 0
-13 -14 0
-15 -16 0
-15 -17 0
-15 -18 0
-15 -19 0
-15 -20 0
-15 -21 0
-16 -17 0
-16 -18 0
-16 -19 0
-16 -20 0
-16 -21 0
-17 -18 0
-17 -19 0
-17 -20 0
-17 -21 0
-18 -19 0
-18 -20 0
-18 -21 0
-19 -20 0
-19 -21 0
-20 -21 0
-22 -23 0
-22 -24 0
-22 -25 0
-22 -26 0
-22 -27 0
-22 -28 0
-23 -24 0
-23 -25 0
-23 -26 0
-23 -27 0
-23 -28 0
-24 -25 0
-24 -26 0
-24 -27 0
-24 -28 0
-25 -26 0
-25 -27 0
-25 -28 0
-26 -27 0
-26 -28 0
-27 -28 0
-29 -30 0
-29 -31 0
-29 -32 0
-29 -33 0
-29 -34 0
-29 -35 0
-30 -31 0
-30 -32 0
-30 -33 0
-30 -34 0
-30 -35 0
-31 -32 0
-31 -33 0
-31 -34 0
-31 -35 0
-32 -33 0
-32 -34 0
-32 -35 0
-33 -34 0
-33 -35 0
-34 -35 0
-36 -37 0
-36 -38 0
-36 -39 0
-36 -40 0
-36 -41 0
-36 -42 0
-37 -38 0
-37 -39 0
-37 -40 0
-37 -41 0
-37 -42 0
-38 -39 0
-38 -40 0
-38 -41 0
-38 -42 0
-39 -40 0
-39 -41 0
-39 -42 0
-40 -41 0
-40 -42 0
-41 -42 0
1 8 15 22 29 36 0
2 9 16 23 30 37 0
3 10 17 24 31 38 0
4 11 18 25 32 39 0
5 12 19 26 33 40 0
6 13 20 27 34 41 0
7 14 21 28 35 42 0
